(set-info :origin "driver benchmark extracted from Microsoft SDV")
(set-logic HORN)
(declare-fun Proc5 (Int Int Int Int Bool Int Int Int Int Int) Bool)
(declare-fun Proc24 (Int Int Int Int Bool Int Int Int Int Bool Int) Bool)
(declare-fun Proc40 (Int Int Int Int Bool) Bool)
(declare-fun Proc22 (Int Int Int Int Bool Int) Bool)
(declare-fun Proc15 (Int Int Int Int Bool Int Int Int) Bool)
(declare-fun Proc0 (Int Int Int Int Bool Int Int) Bool)
(declare-fun Proc23 (Int Int Int Int Bool Int Int Int) Bool)
(declare-fun Proc21 (Int Int Int Int Bool Int Int) Bool)
(declare-fun Proc30 (Int Int Int Int Bool Int) Bool)
(declare-fun Proc39 (Int Int Int Int Bool Int Int Int Int Int Int) Bool)
(declare-fun Proc25 (Int Int Int Int Bool Int Int) Bool)
(declare-fun Proc33 (Int Int Int Int Bool Int Int Int Int Int) Bool)
(declare-fun Proc17 (Int Int Int Int Bool Int Int Int) Bool)
(declare-fun Proc9 (Int Int Int Int Bool Int Int) Bool)
(declare-fun Proc35 (Int Int Int Int Bool Int Int Int Int Int Int) Bool)
(declare-fun Proc2 (Int Int Int Int Bool Int Int Int Int Int) Bool)
(declare-fun Proc27 (Int Int Int Int Bool) Bool)
(declare-fun Proc7 (Int Int Int Int Bool Int Int Int Int Int Int) Bool)
(declare-fun Proc14 (Int Int Int Int Bool Int Int) Bool)
(declare-fun Proc16 (Int Int Int Int Bool Int) Bool)
(declare-fun Proc11 (Int Int Int Int Bool Int Int Int Int) Bool)
(declare-fun Proc37 (Int Int Int Int Bool Int Int Int Int Int) Bool)
(declare-fun Proc3 (Int Int Int Int Bool Int Int Int Int) Bool)
(declare-fun Proc31 (Int Int Int Int Bool Int Int) Bool)
(declare-fun Proc19 (Int Int Int Int Bool) Bool)
(declare-fun Proc18 (Int Int Int Int Bool Int Int Int) Bool)
(declare-fun Proc36 (Int Int Int Int Bool Int Int Int Int Int) Bool)
(declare-fun Proc20 (Int Int Int Int Bool Int) Bool)
(declare-fun Proc26 (Int Int Int Int Bool) Bool)
(declare-fun Proc1 (Int Int Int Int Bool Int Int Int Int) Bool)
(declare-fun Proc29 (Int Int Int Int Bool) Bool)
(declare-fun Proc13 (Int Int Int Int Bool Int Int Int Int) Bool)
(declare-fun Proc38 (Int Int Int Int Bool Int Int Int Int Int Int) Bool)
(declare-fun Proc28 (Int Int Int Int Bool Int Int Int Int) Bool)
(declare-fun Proc34 (Int Int Int Int Bool Int Int Int Int Int Int) Bool)
(declare-fun Proc41 (Int Int Int Int Bool Int Bool Int Int Int Int) Bool)
(declare-fun Proc8 (Int Int Int Int Bool Int Int Int Int Int Int Int Int) Bool)
(declare-fun Proc6 (Int Int Int Int Bool Int Int Int Int Int Int Int) Bool)
(declare-fun Proc32 (Int Int Int Int Bool Int Int Int Int Int) Bool)
(declare-fun Proc10 (Int Int Int Int Bool Int Int Int Int) Bool)
(declare-fun Proc4 (Int Int Int Int Bool Int Int Int) Bool)
(declare-fun Proc12 (Int Int Int Int Bool Int Int Int Int Int Int) Bool)
(assert (forall ((A Int)
         (B Int)
         (C Int)
         (D Int)
         (E Int)
         (F Int)
         (G Int)
         (H Int)
         (I Int)
         (J Int)
         (K Int)
         (L Int)
         (M Int)
         (N Int)
         (O Bool))
  (let ((a!1 (and (not (<= L (+ 4 N))) (not (<= L M))))
        (a!2 (not (and (not (= G 0)) (Proc1 L J I H O F E 1 D)))))
  (let ((a!3 (or (not O)
                 (not (= N M))
                 (not a!1)
                 (= K 0)
                 (not (Proc0 L J I H O 2 N))
                 (= G 0)
                 a!2
                 (not (and (= C 0) (= B L))))))
    (=> (not a!3) (Proc2 M J I H O K A F C B))))))
(assert (forall ((A Int)
         (B Int)
         (C Int)
         (D Int)
         (E Int)
         (F Int)
         (G Int)
         (H Int)
         (I Int)
         (J Int)
         (K Int)
         (L Int)
         (M Int)
         (N Int)
         (O Bool)
         (P Int)
         (Q Int)
         (R Int)
         (S Int)
         (T Int)
         (U Int)
         (V Int))
  (let ((a!1 (not (Proc3 T R Q V O P N M L)))
        (a!2 (not (and (= H I) (= G K) (= F J))))
        (a!4 (and (not (<= D (+ 1 E))) (not (<= D S)))))
  (let ((a!3 (or (not (and (= V U) (= T S)))
                 a!1
                 (not (= K L))
                 (not (and (= J V) (= I 0)))
                 a!2))
        (a!5 (or (not (and (= B 1) (= K C) (= J B) (= I A))) a!2))
        (a!6 (or (= B 1)
                 (not (and (= V B) (= T C)))
                 a!1
                 (not (= K L))
                 (not (and (= J V) (= I 0)))
                 a!2)))
  (let ((a!7 (and a!3
                  (or (not (= E S))
                      (not a!4)
                      (not (Proc4 D R Q U O E C B))
                      (and a!5 a!6)))))
    (=> (not (or (not O) a!7)) (Proc5 S R Q U O P N H G F)))))))
(assert (forall ((A Int)
         (B Int)
         (C Int)
         (D Int)
         (E Int)
         (F Int)
         (G Int)
         (H Int)
         (I Int)
         (J Int)
         (K Int)
         (L Int)
         (M Int)
         (N Int)
         (O Bool)
         (P Int)
         (Q Int)
         (R Int)
         (S Int)
         (T Int)
         (U Int)
         (V Int)
         (W Int)
         (X Int)
         (Y Int))
  (let ((a!1 (not (Proc3 P W R Q O Y T N M)))
        (a!2 (not (and (= I K) (= H L) (= G R) (= F J))))
        (a!4 (and (not (<= D (+ 1 E))) (not (<= D X)))))
  (let ((a!3 (or (not (and (= Q U) (= P X)))
                 a!1
                 (not (= L M))
                 (not (and (= K N) (= J Q)))
                 a!2))
        (a!5 (or (not (and (= B 1) (= L C) (= K A) (= J B))) a!2))
        (a!6 (or (= B 1)
                 (not (and (= Q B) (= P C)))
                 a!1
                 (not (= L M))
                 (not (and (= K N) (= J Q)))
                 a!2)))
  (let ((a!7 (and a!3
                  (or (not (= E X))
                      (not a!4)
                      (not (Proc4 D W R U O E C B))
                      (and a!5 a!6)))))
  (let ((a!8 (not (or (not O)
                      (= Y 0)
                      (not (Proc6 X W V U O T 100 S 1 1 1 R))
                      a!7))))
    (=> a!8 (Proc7 X W V U O Y T I H G F))))))))
(assert (forall ((A Int)
         (B Int)
         (C Int)
         (D Int)
         (E Int)
         (F Int)
         (G Int)
         (H Int)
         (I Int)
         (J Int)
         (K Int)
         (L Int)
         (O Bool))
  (let ((a!1 (and (not (<= J (+ 4 L))) (not (<= J K)))))
  (let ((a!2 (or (not O)
                 (not (= L K))
                 (not a!1)
                 (not (Proc8 J I H G O F 28 0 7 0 0 L E))
                 (not (Proc9 J I H G O D 98))
                 (not (and (= C E) (= B J))))))
    (=> (not a!2) (Proc10 K I H G O F A C B))))))
(assert (forall ((A Int)
         (B Int)
         (C Int)
         (D Int)
         (E Int)
         (F Int)
         (G Int)
         (H Int)
         (I Int)
         (J Int)
         (K Int)
         (L Int)
         (M Int)
         (N Int)
         (O Bool)
         (P Int)
         (Q Int)
         (R Int)
         (S Int)
         (T Int)
         (U Int)
         (V Int)
         (W Int)
         (X Int)
         (Y Int))
  (let ((a!1 (and (not (<= W (+ 1 Y))) (not (<= W X))))
        (a!2 (and (not (<= U (+ 1 V))) (not (<= U W))))
        (a!3 (and (not (<= S (+ 1 T))) (not (<= S U))))
        (a!4 (and (not (<= Q (+ 1 R))) (not (<= Q S))))
        (a!5 (and (not (<= N (+ 1 P))) (not (<= N Q)))))
  (let ((a!6 (or (not O)
                 (not (= Y X))
                 (not a!1)
                 (not (= V W))
                 (not a!2)
                 (not (= T U))
                 (not a!3)
                 (not (= R S))
                 (not a!4)
                 (not (= P Q))
                 (not a!5)
                 (= M 0)
                 (= L 0)
                 (= K 0)
                 (= J 0)
                 (= I 0)
                 (= H 0)
                 (= G 0)
                 (not (and (= F 0) (= E N))))))
    (=> (not a!6) (Proc11 X D C B O M A F E))))))
(assert (forall ((A Int)
         (B Int)
         (C Int)
         (D Int)
         (E Int)
         (F Int)
         (G Int)
         (H Int)
         (I Int)
         (J Int)
         (K Int)
         (L Int)
         (M Int)
         (N Int)
         (O Bool)
         (P Int)
         (Q Int)
         (R Int))
  (let ((a!1 (not (and (= N (- 1073741823)) (= Q N))))
        (a!2 (not (and (= M (- 1073741670)) (= Q M))))
        (a!3 (not (and (= L (- 1073741771)) (= Q L))))
        (a!4 (not (and (= K (- 1073741824)) (= Q K)))))
  (let ((a!5 (and (or (= R 0) (not (= Q 0)) (not (= P Q)))
                  (or (= R 0) a!1 (not (= P Q)))
                  (or (= R 0) a!2 (not (= P Q)))
                  (or (= R 0) a!3 (not (= P Q)))
                  (or (= R 0) a!4 (not (= P Q))))))
    (=> (not (or (not O) a!5)) (Proc8 J I H G O F E D C B A R P))))))
(assert (forall ((A Int)
         (B Int)
         (C Int)
         (D Int)
         (E Int)
         (F Int)
         (G Int)
         (H Int)
         (I Int)
         (J Int)
         (K Int)
         (L Int)
         (M Int)
         (N Int)
         (O Bool)
         (P Int)
         (Q Int)
         (R Int)
         (S Int)
         (T Int)
         (U Int)
         (V Int)
         (W Int)
         (X Int)
         (Y Int)
         (Z Int)
         (A1 Int)
         (B1 Int))
  (let ((a!1 (and (not (<= Z (+ 4 B1))) (not (<= Z A1))))
        (a!2 (or (not (Proc12 Z W X V O U Y T B1 S R))
                 (not (= Q R))
                 (not (and (= P 259) (= N Q)))))
        (a!3 (or (not (= Q Z)) (not (and (= P 259) (= N Q)))))
        (a!4 (or (not (and (= X 0) (= Q Z))) (not (and (= P 259) (= N Q)))))
        (a!6 (or (not (Proc12 Z W X V O M Y L B1 K J))
                 (not (= Q J))
                 (not (and (= P 259) (= N Q)))))
        (a!7 (or (not (Proc12 Z W X V O I Y H B1 G F))
                 (not (= Q F))
                 (not (and (= P 259) (= N Q)))))
        (a!8 (or (not (Proc12 Z W X V O E Y D B1 C B))
                 (not (= Q B))
                 (not (and (= P 259) (= N Q))))))
  (let ((a!5 (or (= Y 0) (and (or (= X 0) (and a!2 a!3)) a!4))))
  (let ((a!9 (or (not O)
                 (not (= B1 A1))
                 (not a!1)
                 (and a!5
                      (or (= Y 0) (and a!6 a!3))
                      (or (= Y 0) (and a!7 a!3))
                      (or (= Y 0) (and a!8 a!3))))))
    (=> (not a!9) (Proc13 A1 W X V O A Y P N)))))))
(assert (forall ((A Int)
         (B Int)
         (C Int)
         (D Int)
         (E Int)
         (F Int)
         (G Int)
         (H Int)
         (I Int)
         (O Bool))
  (let ((a!1 (not (or (not O) (not (= I H))))))
    (=> a!1 (Proc1 G F E D O C B A I)))))
(assert (forall ((A Int)
         (B Int)
         (C Int)
         (D Int)
         (E Int)
         (F Int)
         (G Int)
         (H Int)
         (I Int)
         (J Int)
         (O Bool))
  (let ((a!1 (and (not (<= H (+ 1 J))) (not (<= H I)))))
  (let ((a!2 (or (not O)
                 (not (= J I))
                 (not a!1)
                 (not (Proc14 H G F E O J D))
                 (not (and (= C H) (= B D))))))
    (=> (not a!2) (Proc15 I G F E O A C B))))))
(assert (forall ((A Int) (B Int) (C Int) (D Int) (E Int) (F Int) (O Bool))
  (let ((a!1 (not (or (not O) (not (= F 1))))))
    (=> a!1 (Proc14 E D C B O A F)))))
(assert (forall ((A Int) (B Int) (C Int) (D Int) (E Int) (O Bool))
  (=> false (Proc16 E D C B O A))))
(assert (forall ((A Int)
         (B Int)
         (C Int)
         (D Int)
         (E Int)
         (F Int)
         (G Int)
         (H Int)
         (I Int)
         (J Int)
         (K Int)
         (O Bool))
  (let ((a!1 (or (= K 1)
                 (not (and (= J I) (= H G)))
                 (not (and (= F H) (= E J)))))
        (a!2 (or (not (= A 1))
                 (not (and (= J A) (= H B)))
                 (not (and (= F H) (= E J)))))
        (a!3 (or (= A 1)
                 (not (and (= J A) (= H B)))
                 (not (and (= F H) (= E J))))))
  (let ((a!4 (and a!1
                  (or (not (= K 1))
                      (not (Proc15 G K D I O C B A))
                      (and a!2 a!3)))))
    (=> (not (or (not O) a!4)) (Proc4 G K D I O C F E))))))
(assert (forall ((A Int)
         (B Int)
         (C Int)
         (D Int)
         (E Int)
         (F Int)
         (G Int)
         (H Int)
         (I Int)
         (J Int)
         (K Int)
         (O Bool))
  (let ((a!1 (and (not (<= E (+ 1 F))) (not (<= E H)))))
  (let ((a!2 (or (not (= F H))
                 (not a!1)
                 (not (and (Proc16 E D C B O F) (= I E)))
                 (not (= G I)))))
  (let ((a!3 (and (or (not (= I H)) (not (= G I))) a!2)))
    (=> (not (or (not O) (= K 0) (= J 0) a!3)) (Proc17 H D C B O A K G)))))))
(assert (forall ((A Int)
         (B Int)
         (C Int)
         (D Int)
         (E Int)
         (F Int)
         (G Int)
         (H Int)
         (I Int)
         (J Int)
         (K Int)
         (O Bool))
  (let ((a!1 (and (not (<= E (+ 1 F))) (not (<= E H)))))
  (let ((a!2 (or (not (= F H))
                 (not a!1)
                 (not (and (Proc16 E D C B O F) (= I E)))
                 (not (= G I)))))
  (let ((a!3 (and (or (not (= I H)) (not (= G I))) a!2)))
    (=> (not (or (not O) (= K 0) (= J 0) a!3)) (Proc18 H D C B O A K G)))))))
(assert (forall ((A Int) (B Int) (C Int) (D Int) (O Bool)) (=> O (Proc19 D C B A O))))
(assert (forall ((A Int) (B Int) (C Int) (D Int) (E Int) (O Bool))
  (let ((a!1 (not (or (not O) (not (= E 0))))))
    (=> a!1 (Proc20 D C B A O E)))))
(assert (forall ((A Int) (B Int) (C Int) (D Int) (E Int) (F Int) (O Bool))
  (let ((a!1 (or (not O) (not (and (= F 0) (= E 0))))))
    (=> (not a!1) (Proc21 D C B A O F E)))))
(assert (forall ((A Int)
         (B Int)
         (C Int)
         (D Int)
         (E Int)
         (F Int)
         (G Int)
         (H Int)
         (I Int)
         (J Int)
         (K Int)
         (L Int)
         (M Int)
         (N Int)
         (O Bool)
         (P Int)
         (Q Int)
         (R Int)
         (S Int)
         (T Int)
         (C1 Bool)
         (D1 Bool)
         (E1 Bool))
  (let ((a!1 (not (and (not (<= T 0)) (Proc22 T S R Q E1 P))))
        (a!2 (not (and (= F H) (= E N) (= D I) (= C J) (= C1 D1) (= B K)))))
  (let ((a!3 (or (= I 0) (not (and (= H G) (not D1))) a!2))
        (a!4 (or (not (and (= I 0) (= O E1))) (not (and (= H A) (= D1 O))) a!2)))
  (let ((a!5 (and (or (= I 1) (and a!3 a!4)) (or (not (= I 1)) (and a!3 a!4)))))
  (let ((a!6 (not (or (not E1)
                      a!1
                      (not (Proc21 P S R Q E1 N M))
                      (not (Proc20 P N R M E1 L))
                      (not (Proc19 P N L M E1))
                      (not (Proc23 P N L M E1 K J I))
                      a!5))))
    (=> a!6 (Proc24 T S R Q E1 F E D C C1 B))))))))
(assert (forall ((A Int)
         (B Int)
         (C Int)
         (D Int)
         (E Int)
         (F Int)
         (G Int)
         (H Int)
         (I Int)
         (J Int)
         (O Bool))
  (let ((a!1 (or (not O)
                 (not (Proc13 J I H G O F E D C))
                 (not (and (= B D) (= A C))))))
    (=> (not a!1) (Proc3 J I H G O F E B A)))))
(assert (forall ((A Int)
         (B Int)
         (C Int)
         (D Int)
         (E Int)
         (F Int)
         (G Int)
         (H Int)
         (I Int)
         (J Int)
         (O Bool))
  (let ((a!1 (and (or (not (= J I)) (not (= H J)))
                  (or (not (= J G)) (not (= H J)))
                  (or (not (= J F)) (not (= H J))))))
    (=> (not (or (not O) a!1)) (Proc25 E D C B O A H)))))
(assert (forall ((A Int) (B Int) (C Int) (D Int) (E Int) (F Int) (O Bool))
  (=> O (Proc9 F E D C O B A))))
(assert (forall ((A Int)
         (B Int)
         (C Int)
         (D Int)
         (E Int)
         (F Int)
         (G Int)
         (H Int)
         (I Int)
         (J Int)
         (K Int)
         (L Int)
         (O Bool))
  (let ((a!1 (not (or (not O)
                      (not (Proc25 L K J I O H G))
                      (= G 0)
                      (not (= F E))))))
    (=> a!1 (Proc6 L K J I O H D C E B A F)))))
(assert (forall ((A Int) (B Int) (C Int) (D Int) (E Int) (F Int) (O Bool))
  (=> (not (or (not O) (= F 0))) (Proc0 E D C B O A F))))
(assert (forall ((A Int)
         (B Int)
         (C Int)
         (D Int)
         (E Int)
         (F Int)
         (G Int)
         (H Int)
         (I Int)
         (J Int)
         (O Bool))
  (let ((a!1 (or (not O)
                 (not (Proc26 J I H G O))
                 (not (Proc10 J I H G O F E D C))
                 (not (Proc27 C I H G O))
                 (not (and (= B D) (= A C))))))
    (=> (not a!1) (Proc28 J I H G O F E B A)))))
(assert (forall ((A Int)
         (B Int)
         (C Int)
         (D Int)
         (E Int)
         (F Int)
         (G Int)
         (H Int)
         (I Int)
         (J Int)
         (K Int)
         (L Int)
         (M Int)
         (N Int)
         (O Bool)
         (P Int))
  (let ((a!1 (or (not (and (= I P) (= H 0))) (not (and (= G H) (= F I)))))
        (a!2 (or (not (Proc2 P N M L O E K D C B))
                 (= A 0)
                 (not (and (= I B) (= H C)))
                 (not (and (= G H) (= F I))))))
  (let ((a!3 (not (or (not O)
                      (not (Proc25 P N M L O K J))
                      (= J 0)
                      (and a!1 a!2)))))
    (=> a!3 (Proc12 P N M L O E K D A G F))))))
(assert (forall ((A Int)
         (B Int)
         (C Int)
         (D Int)
         (E Int)
         (F Int)
         (G Int)
         (H Int)
         (I Int)
         (J Int)
         (K Int)
         (L Int)
         (M Int)
         (N Int)
         (O Bool)
         (P Int))
  (let ((a!1 (not (and (= C E) (= B G) (= A F)))))
  (let ((a!2 (or (not (and (= F 1) (= E D))) a!1)))
  (let ((a!3 (and a!2
                  (or (= F 1) (not (Proc31 G L K F O H P)) (not (= E H)) a!1))))
  (let ((a!4 (not (or (not O)
                      (= P 0)
                      (= N 0)
                      (not (Proc29 M L K J O))
                      (not (Proc30 M L K J O P))
                      (not (Proc5 M L K J O I P H G F))
                      a!3))))
    (=> a!4 (Proc32 M L K J O I P C B A))))))))
(assert (forall ((A Int)
         (B Int)
         (C Int)
         (D Int)
         (E Int)
         (F Int)
         (G Int)
         (H Int)
         (I Int)
         (J Int)
         (K Int)
         (L Int)
         (M Int)
         (N Int)
         (O Bool)
         (P Int))
  (let ((a!1 (not (and (= C E) (= B G) (= A F)))))
  (let ((a!2 (or (not (and (= F 1) (= E D))) a!1)))
  (let ((a!3 (and a!2 (or (= F 1) (not (= E H)) a!1))))
  (let ((a!4 (not (or (not O)
                      (= P 0)
                      (= N 0)
                      (not (Proc30 M L K J O P))
                      (not (Proc5 M L K J O I P H G F))
                      a!3))))
    (=> a!4 (Proc33 M L K J O I P C B A))))))))
(assert (forall ((A Int)
         (B Int)
         (C Int)
         (D Int)
         (E Int)
         (F Int)
         (G Int)
         (H Int)
         (I Int)
         (J Int)
         (K Int)
         (L Int)
         (M Int)
         (N Int)
         (O Bool)
         (P Int)
         (Q Int)
         (R Int))
  (let ((a!1 (not (and (= D F) (= C I) (= B H) (= A G)))))
  (let ((a!2 (or (not (and (= G 1) (= F E))) a!1)))
  (let ((a!3 (and a!2 (or (= G 1) (not (= F J)) a!1))))
  (let ((a!4 (not (or (not O)
                      (= R 0)
                      (= Q 0)
                      (not (Proc30 P N M L O R))
                      (not (Proc7 P N M L O K R J I H G))
                      a!3))))
    (=> a!4 (Proc34 P N M L O K R D C B A))))))))
(assert (forall ((A Int)
         (B Int)
         (C Int)
         (D Int)
         (E Int)
         (F Int)
         (G Int)
         (H Int)
         (I Int)
         (J Int)
         (K Int)
         (L Int)
         (M Int)
         (N Int)
         (O Bool)
         (P Int)
         (Q Int)
         (R Int))
  (let ((a!1 (not (and (= D F) (= C I) (= B H) (= A G)))))
  (let ((a!2 (or (not (and (= G 1) (= F E))) a!1)))
  (let ((a!3 (and a!2 (or (= G 1) (not (= F J)) a!1))))
  (let ((a!4 (not (or (not O)
                      (= R 0)
                      (= Q 0)
                      (not (Proc30 P N M L O R))
                      (not (Proc7 P N M L O K R J I H G))
                      a!3))))
    (=> a!4 (Proc35 P N M L O K R D C B A))))))))
(assert (forall ((A Int)
         (B Int)
         (C Int)
         (D Int)
         (E Int)
         (F Int)
         (G Int)
         (H Int)
         (I Int)
         (J Int)
         (K Int)
         (L Int)
         (M Int)
         (N Int)
         (O Bool)
         (P Int))
  (let ((a!1 (not (and (= C E) (= B G) (= A F)))))
  (let ((a!2 (or (not (and (= F 1) (= E D))) a!1)))
  (let ((a!3 (and a!2 (or (= F 1) (not (= E H)) a!1))))
  (let ((a!4 (not (or (not O)
                      (= P 0)
                      (= N 0)
                      (not (Proc30 M L K J O P))
                      (not (Proc5 M L K J O I P H G F))
                      a!3))))
    (=> a!4 (Proc36 M L K J O I P C B A))))))))
(assert (forall ((A Int)
         (B Int)
         (C Int)
         (D Int)
         (E Int)
         (F Int)
         (G Int)
         (H Int)
         (I Int)
         (J Int)
         (K Int)
         (L Int)
         (M Int)
         (N Int)
         (O Bool)
         (P Int))
  (let ((a!1 (not (and (= C E) (= B G) (= A F)))))
  (let ((a!2 (or (not (and (= F 1) (= E D))) a!1)))
  (let ((a!3 (and a!2
                  (or (= F 1) (not (Proc31 G L K F O H P)) (not (= E H)) a!1))))
  (let ((a!4 (not (or (not O)
                      (= P 0)
                      (= N 0)
                      (not (Proc29 M L K J O))
                      (not (Proc30 M L K J O P))
                      (not (Proc5 M L K J O I P H G F))
                      a!3))))
    (=> a!4 (Proc37 M L K J O I P C B A))))))))
(assert (forall ((A Int)
         (B Int)
         (C Int)
         (D Int)
         (E Int)
         (F Int)
         (G Int)
         (H Int)
         (I Int)
         (J Int)
         (K Int)
         (L Int)
         (M Int)
         (N Int)
         (O Bool)
         (P Int)
         (Q Int)
         (R Int))
  (let ((a!1 (not (and (= D F) (= C I) (= B H) (= A G)))))
  (let ((a!2 (or (not (and (= G 1) (= F E))) a!1)))
  (let ((a!3 (and a!2 (or (= G 1) (not (= F J)) a!1))))
  (let ((a!4 (not (or (not O)
                      (= R 0)
                      (= Q 0)
                      (not (Proc30 P N M L O R))
                      (not (Proc7 P N M L O K R J I H G))
                      a!3))))
    (=> a!4 (Proc38 P N M L O K R D C B A))))))))
(assert (forall ((A Int)
         (B Int)
         (C Int)
         (D Int)
         (E Int)
         (F Int)
         (G Int)
         (H Int)
         (I Int)
         (J Int)
         (K Int)
         (L Int)
         (M Int)
         (N Int)
         (O Bool)
         (P Int)
         (Q Int)
         (R Int))
  (let ((a!1 (not (and (= D F) (= C I) (= B H) (= A G)))))
  (let ((a!2 (or (not (and (= G 1) (= F E))) a!1)))
  (let ((a!3 (and a!2 (or (= G 1) (not (= F J)) a!1))))
  (let ((a!4 (not (or (not O)
                      (= R 0)
                      (= Q 0)
                      (not (Proc30 P N M L O R))
                      (not (Proc7 P N M L O K R J I H G))
                      a!3))))
    (=> a!4 (Proc39 P N M L O K R D C B A))))))))
(assert (forall ((A Int) (B Int) (C Int) (D Int) (E Int) (O Bool))
  (=> (not (or (not O) (= E 0))) (Proc30 D C B A O E))))
(assert (forall ((A Int)
         (B Int)
         (C Int)
         (D Int)
         (E Int)
         (F Int)
         (G Int)
         (H Int)
         (I Int)
         (J Int)
         (K Int)
         (L Int)
         (M Int)
         (N Int)
         (O Bool)
         (P Int)
         (Q Int)
         (R Int)
         (S Int)
         (T Int)
         (U Int)
         (V Int)
         (W Int)
         (X Int)
         (Y Int)
         (Z Int)
         (A1 Int)
         (B1 Int)
         (F1 Int)
         (G1 Int)
         (H1 Int)
         (I1 Int)
         (J1 Int)
         (K1 Int)
         (L1 Int)
         (M1 Int)
         (N1 Int)
         (O1 Int)
         (P1 Int)
         (Q1 Int)
         (R1 Int)
         (S1 Int)
         (T1 Int)
         (U1 Int)
         (V1 Int)
         (W1 Int)
         (X1 Int)
         (Y1 Int)
         (Z1 Int)
         (A2 Int)
         (B2 Int)
         (C2 Int)
         (D2 Int)
         (E2 Int)
         (F2 Int)
         (G2 Int)
         (H2 Int)
         (I2 Int)
         (J2 Int)
         (K2 Int)
         (L2 Int)
         (M2 Int)
         (N2 Int)
         (O2 Int)
         (P2 Int)
         (Q2 Int)
         (R2 Int)
         (S2 Int)
         (T2 Int)
         (U2 Int)
         (V2 Int)
         (W2 Int)
         (X2 Int)
         (Y2 Int)
         (Z2 Int)
         (A3 Int)
         (B3 Int)
         (C3 Int)
         (D3 Int)
         (E3 Int)
         (F3 Int)
         (G3 Int)
         (H3 Int))
  (let ((a!1 (and (not (<= F3 (+ 12 H3))) (not (<= F3 G3))))
        (a!2 (not (and (= K2 N2) (= J2 L2) (= I2 M2))))
        (a!4 (and (not (<= F2 (+ 1 G2))) (not (<= F2 P2))))
        (a!6 (not (Proc32 X1 E3 D3 Y1 O V1 U1 T1 S1 R1)))
        (a!13 (not (and (not (= E 0)) (= N2 H) (= M2 F) (= L2 G))))
        (a!20 (and (not (<= C (+ 1 D))) (not (<= C Z1)))))
  (let ((a!3 (or (not (and (= O2 1) (= N2 P2) (= M2 O2) (= L2 D3))) a!2))
        (a!5 (or (not (and (= Y1 1) (= N2 Z1) (= M2 Y1) (= L2 D3))) a!2))
        (a!7 (or (not (and (= R1 1) (= N2 S1) (= M2 R1) (= L2 D3))) a!2))
        (a!8 (or (not (and (= L1 1) (= N2 M1) (= M2 L1) (= L2 D3))) a!2))
        (a!9 (or (not (and (= B1 1) (= N2 G1) (= M2 B1) (= L2 F1))) a!2))
        (a!10 (or (not (and (= U 1) (= N2 W) (= M2 U) (= L2 V))) a!2))
        (a!11 (or (not (and (= M 1) (= N2 P) (= M2 M) (= L2 N))) a!2))
        (a!12 (or (not (and (= F 1) (= N2 H) (= M2 F) (= L2 G))) a!2))
        (a!14 (and (or (not (<= 0 I)) (not (= E 1)) a!13 a!2)
                   (or (<= 0 I) (not (= E 0)) a!13 a!2))))
  (let ((a!15 (or (= M 1)
                  (not (<= 0 Q))
                  (not (= L 1))
                  (= L 0)
                  (not (Proc38 P E3 N M O K J I H G F))
                  (and a!12 (or (= F 1) a!14)))))
  (let ((a!16 (and a!10
                   (or (= U 1)
                       (not (<= 0 X))
                       (not (= T 1))
                       (= T 0)
                       (not (Proc34 W E3 V U O S R Q P N M))
                       (and a!11 a!15)))))
  (let ((a!17 (and a!9
                   (or (= B1 1)
                       (not (<= 0 H1))
                       (not (= A1 1))
                       (= A1 0)
                       (not (Proc39 G1 E3 F1 B1 O Z Y X W V U))
                       a!16))))
  (let ((a!18 (and a!8
                   (or (= L1 1)
                       (not (<= 0 N1))
                       (not (= K1 1))
                       (= K1 0)
                       (not (Proc35 M1 E3 D3 L1 O J1 I1 H1 G1 F1 B1))
                       a!17))))
  (let ((a!19 (and a!7
                   (or (= R1 1)
                       (not (<= 0 T1))
                       (not (= Q1 1))
                       (= Q1 0)
                       (not (Proc33 S1 E3 D3 R1 O P1 O1 N1 M1 L1))
                       a!18))))
  (let ((a!21 (or (not (= D Z1))
                  (not a!20)
                  (not (and (Proc18 C E3 D3 Y1 O D B A) (= X1 A)))
                  (not (<= 0 A2))
                  (not (= W1 1))
                  (= W1 0)
                  a!6
                  a!19)))
  (let ((a!22 (and (or (not (= X1 Z1))
                       (not (<= 0 A2))
                       (not (= W1 1))
                       (= W1 0)
                       a!6
                       a!19)
                   a!21)))
  (let ((a!23 (or (= O2 1)
                  (not (<= 0 Q2))
                  (not (= H2 1))
                  (= H2 0)
                  (not (= G2 P2))
                  (not a!4)
                  (not (Proc17 F2 E3 D3 O2 O G2 E2 D2))
                  (not (Proc37 D2 E3 D3 O2 O C2 B2 A2 Z1 Y1))
                  (and a!5 (or (= Y1 1) a!22)))))
  (let ((a!24 (not (or (not O)
                       (not (= H3 G3))
                       (not a!1)
                       (not (Proc11 F3 E3 D3 C3 O B3 H3 A3 Z2))
                       (not (<= 0 A3))
                       (not (= Y2 1))
                       (= Y2 0)
                       (not (Proc28 Z2 E3 D3 C3 O X2 W2 V2 U2))
                       (not (<= 0 V2))
                       (not (= T2 1))
                       (= T2 0)
                       (not (Proc40 U2 E3 D3 C3 O))
                       (not (Proc36 U2 E3 D3 C3 O S2 R2 Q2 P2 O2))
                       (and a!3 a!23)))))
    (=> a!24 (Proc23 G3 E3 D3 C3 O K2 J2 I2)))))))))))))))
(assert (forall ((A Int) (B Int) (C Int) (D Int) (O Bool)) (=> O (Proc26 D C B A O))))
(assert (forall ((A Int) (B Int) (C Int) (D Int) (O Bool)) (=> O (Proc27 D C B A O))))
(assert (forall ((A Int) (B Int) (C Int) (D Int) (O Bool)) (=> O (Proc29 D C B A O))))
(assert (forall ((A Int) (B Int) (C Int) (D Int) (E Int) (F Int) (O Bool))
  (=> O (Proc31 F E D C O B A))))
(assert (forall ((A Int) (B Int) (C Int) (D Int) (O Bool)) (=> O (Proc40 D C B A O))))
(assert (forall ((A Int)
         (B Int)
         (C Int)
         (D Int)
         (E Int)
         (F Int)
         (G Int)
         (H Int)
         (I Int)
         (J Int)
         (K Int)
         (L Int)
         (M Int)
         (N Int)
         (O Bool)
         (P Int)
         (Q Int)
         (R Int)
         (S Int)
         (T Int)
         (U Int)
         (V Int)
         (W Int)
         (X Int)
         (Y Int)
         (Z Int)
         (A1 Int)
         (B1 Int)
         (F1 Int)
         (G1 Int)
         (H1 Int)
         (I1 Int)
         (J1 Int)
         (K1 Int)
         (L1 Int)
         (M1 Int)
         (N1 Int)
         (O1 Int)
         (P1 Int)
         (Q1 Int)
         (R1 Int)
         (S1 Int)
         (T1 Int)
         (U1 Int)
         (V1 Int)
         (W1 Int)
         (X1 Int)
         (Y1 Int)
         (Z1 Int)
         (A2 Int)
         (B2 Int)
         (C2 Int)
         (D2 Int)
         (E2 Int)
         (F2 Int)
         (G2 Int)
         (H2 Int)
         (I2 Int)
         (J2 Int)
         (K2 Int))
  (let ((a!1 (and (not (<= I2 (+ 240 K2)))
                  (not (<= I2 J2))
                  (= H2 I2)
                  (not (<= G2 (+ 4 H2)))
                  (not (<= G2 I2))
                  (= F2 G2)
                  (not (<= E2 (+ 332 F2)))
                  (not (<= E2 G2))
                  (= D2 E2)
                  (not (<= C2 (+ 4 D2)))
                  (not (<= C2 E2))
                  (= B2 C2)
                  (not (<= A2 (+ 536 B2)))
                  (not (<= A2 C2))
                  (= Z1 A2)
                  (not (<= Y1 (+ 240 Z1)))))
        (a!2 (and (not (<= Y1 A2))
                  (= X1 Y1)
                  (not (<= W1 (+ 240 X1)))
                  (not (<= W1 Y1))
                  (= V1 W1)
                  (not (<= U1 (+ 536 V1)))
                  (not (<= U1 W1))
                  (= T1 U1)
                  (not (<= S1 (+ 240 T1)))
                  (not (<= S1 U1))
                  (= R1 S1)
                  (not (<= Q1 (+ 4 R1)))
                  (not (<= Q1 S1))
                  (= P1 Q1)
                  (not (<= O1 (+ 536 P1)))
                  (not (<= O1 Q1))
                  (= N1 O1)
                  (not (<= M1 (+ 332 N1)))
                  (not (<= M1 O1))
                  (= L1 M1)
                  (not (<= K1 (+ 240 L1)))
                  (not (<= K1 M1))
                  (= J1 K1)
                  (not (<= I1 (+ 240 J1)))
                  (not (<= I1 K1))
                  (= H1 I1)
                  (not (<= G1 (+ 332 H1)))
                  (not (<= G1 I1))
                  (= F1 G1)
                  (not (<= B1 (+ 4 F1)))
                  (not (<= B1 G1))
                  (= A1 B1)
                  (not (<= Z (+ 68 A1)))
                  (not (<= Z B1))
                  (= Y Z)
                  (not (<= X (+ 536 Y)))
                  (not (<= X Z))
                  (= W X)
                  (not (<= V (+ 240 W)))
                  (not (<= V X))
                  (= U V)
                  (not (<= T (+ 240 U)))
                  (not (<= T V))
                  (= S T)
                  (not (<= R (+ 240 S)))
                  (not (<= R T))
                  (= Q R)
                  (not (<= P (+ 240 Q)))
                  (not (<= P R))
                  (= N P)
                  (not (<= M (+ 240 N)))
                  (not (<= M P))
                  (= L M)
                  (not (<= K (+ 40 L)))
                  (not (<= K M))
                  (= J K)
                  (not (<= I (+ 332 J)))
                  (not (<= I K))
                  (= H I)
                  (not (<= G (+ 4 H)))
                  (not (<= G I))
                  (= F G)
                  (not (<= E (+ 40 F)))
                  (not (<= E G)))))
  (let ((a!3 (not (or (not O) (not (= K2 J2)) (not a!1) (not a!2) (not (= D E))))))
    (=> a!3 (Proc22 J2 C B A O D))))))
(assert (forall ((A Int)
         (B Int)
         (C Int)
         (D Int)
         (E Int)
         (F Int)
         (G Int)
         (H Int)
         (I Int)
         (J Int)
         (K Int)
         (L Int)
         (M Int)
         (N Int)
         (O Bool)
         (C1 Bool)
         (D1 Bool))
  (let ((a!1 (or (not D1)
                 (not (and (Proc24 N M L K true J I H G C1 F) (not C1))))))
    (=> (not a!1) (Proc41 N M L K D1 E O D C B A)))))
(assert (let ((a!1 (exists ((V0 Int)
                    (V1 Int)
                    (V2 Int)
                    (V3 Int)
                    (V4 Bool)
                    (V5 Int)
                    (V6 Bool)
                    (V7 Int)
                    (V8 Int)
                    (V9 Int)
                    (V10 Int))
             (not (=> (and (Proc41 V0 V1 V2 V3 V4 V5 V6 V7 V8 V9 V10)
                           (not false))
                      false)))))
  (not a!1)))

(check-sat)
